Instance name : bar-n100-1
Authors       : Pix
Date          : 2025
Reference     : Simplified Hybrid ACO + Pure Greedy
Solution
Route 1 : 31 14 81 17 67 2 10 21 60 52 71 64 49 1 27 26 76 77 99 6 56 51
Route 2 : 30 80 7 57 9 59 5 55 37 87 32 23 82 16 36 66 50 100 86 73
Route 3 : 13 39 63 48 98 42 89 38 28 92 88 78 25 46 96 75
Route 4 : 47 12 97 29 62 41 91 79 11 22 72 18 61 68
Route 5 : 33 34 84 35 83 44 24 85 94 74 3 53
Route 6 : 19 15 69 65 43 45 4 54 95 93 8 58
Route 7 : 40 20 90 70
